benchmarks_CP/INST_36x36/20/inst36x36_20_69.dzn
S=6;
start=[|
2,	-1,	29,	-1,	-1,	-1,	-1,	-1,	-1,	-1,	-1,	-1,	-1,	-1,	-1,	3,	-1,	23,	-1,	-1,	-1,	-1,	5,	-1,	9,	-1,	-1,	-1,	-1,	-1,	-1,	-1,	12,	-1,	-1,	6|
-1,	-1,	20,	11,	9,	-1,	-1,	-1,	-1,	-1,	-1,	-1,	-1,	-1,	-1,	-1,	-1,	-1,	21,	-1,	-1,	-1,	-1,	-1,	-1,	16,	-1,	-1,	-1,	-1,	-1,	25,	-1,	-1,	-1,	-1|
-1,	-1,	8,	-1,	-1,	-1,	-1,	-1,	-1,	-1,	-1,	-1,	-1,	-1,	-1,	15,	-1,	-1,	-1,	-1,	-1,	28,	16,	-1,	-1,	-1,	-1,	-1,	-1,	-1,	-1,	-1,	-1,	-1,	-1,	-1|
12,	16,	-1,	-1,	-1,	-1,	-1,	-1,	-1,	-1,	-1,	-1,	-1,	-1,	-1,	-1,	-1,	-1,	-1,	4,	-1,	-1,	6,	35,	-1,	-1,	-1,	-1,	15,	-1,	-1,	-1,	-1,	-1,	-1,	31|
21,	-1,	-1,	-1,	-1,	-1,	-1,	-1,	-1,	-1,	-1,	31,	-1,	-1,	-1,	9,	-1,	6,	-1,	-1,	-1,	-1,	-1,	-1,	-1,	4,	-1,	-1,	25,	-1,	-1,	-1,	-1,	-1,	-1,	-1|
-1,	6,	-1,	-1,	31,	-1,	-1,	-1,	-1,	-1,	-1,	-1,	-1,	-1,	-1,	-1,	-1,	-1,	-1,	-1,	-1,	10,	-1,	-1,	21,	-1,	-1,	-1,	28,	-1,	20,	-1,	-1,	-1,	11,	-1|
-1,	27,	6,	-1,	-1,	-1,	-1,	-1,	-1,	-1,	9,	-1,	-1,	-1,	28,	-1,	-1,	-1,	-1,	35,	-1,	15,	-1,	-1,	-1,	-1,	30,	-1,	-1,	-1,	17,	32,	24,	-1,	-1,	18|
-1,	-1,	-1,	-1,	-1,	-1,	-1,	26,	-1,	-1,	30,	7,	24,	-1,	-1,	-1,	-1,	-1,	22,	36,	-1,	-1,	-1,	-1,	-1,	-1,	-1,	-1,	-1,	32,	-1,	-1,	-1,	34,	31,	-1|
-1,	-1,	-1,	-1,	-1,	-1,	-1,	-1,	-1,	-1,	-1,	-1,	-1,	-1,	-1,	33,	30,	-1,	26,	-1,	-1,	-1,	-1,	-1,	-1,	-1,	27,	-1,	21,	-1,	-1,	-1,	10,	-1,	-1,	5|
-1,	-1,	-1,	-1,	-1,	-1,	-1,	27,	-1,	-1,	-1,	25,	-1,	-1,	-1,	36,	-1,	-1,	24,	-1,	-1,	-1,	-1,	-1,	-1,	11,	-1,	-1,	-1,	-1,	-1,	-1,	-1,	16,	-1,	-1|
-1,	31,	-1,	-1,	30,	5,	22,	-1,	-1,	-1,	-1,	-1,	-1,	-1,	1,	-1,	-1,	-1,	-1,	18,	16,	-1,	21,	-1,	6,	-1,	-1,	-1,	-1,	-1,	-1,	29,	-1,	-1,	-1,	-1|
20,	-1,	-1,	-1,	-1,	-1,	-1,	-1,	-1,	-1,	-1,	-1,	-1,	12,	-1,	-1,	6,	-1,	-1,	-1,	-1,	-1,	-1,	-1,	-1,	-1,	13,	-1,	-1,	-1,	-1,	-1,	-1,	-1,	-1,	-1|
-1,	-1,	-1,	23,	-1,	-1,	-1,	-1,	9,	-1,	-1,	-1,	-1,	-1,	-1,	-1,	-1,	-1,	-1,	-1,	-1,	7,	-1,	12,	36,	-1,	-1,	-1,	16,	33,	11,	-1,	-1,	-1,	-1,	-1|
-1,	-1,	4,	-1,	-1,	20,	-1,	-1,	-1,	-1,	-1,	-1,	-1,	-1,	-1,	-1,	-1,	-1,	-1,	-1,	-1,	-1,	-1,	-1,	-1,	-1,	-1,	-1,	-1,	-1,	6,	-1,	7,	-1,	-1,	-1|
-1,	-1,	-1,	-1,	12,	-1,	-1,	-1,	-1,	-1,	-1,	-1,	-1,	-1,	-1,	-1,	-1,	-1,	-1,	-1,	19,	-1,	3,	-1,	-1,	-1,	-1,	-1,	-1,	-1,	-1,	-1,	-1,	-1,	-1,	-1|
-1,	10,	-1,	-1,	16,	3,	-1,	-1,	-1,	30,	-1,	-1,	-1,	1,	-1,	8,	-1,	7,	5,	-1,	-1,	36,	-1,	-1,	-1,	-1,	6,	-1,	-1,	-1,	-1,	-1,	-1,	-1,	-1,	34|
9,	-1,	-1,	-1,	-1,	-1,	-1,	-1,	-1,	11,	-1,	-1,	-1,	-1,	-1,	18,	-1,	-1,	-1,	-1,	-1,	-1,	17,	-1,	-1,	-1,	-1,	-1,	-1,	23,	-1,	2,	30,	-1,	-1,	-1|
-1,	15,	-1,	-1,	7,	-1,	16,	-1,	-1,	-1,	-1,	-1,	13,	-1,	-1,	-1,	-1,	-1,	-1,	-1,	27,	-1,	-1,	-1,	-1,	-1,	-1,	-1,	-1,	-1,	-1,	-1,	-1,	-1,	-1,	-1|
-1,	18,	-1,	-1,	-1,	-1,	-1,	-1,	-1,	-1,	-1,	11,	-1,	-1,	-1,	-1,	-1,	-1,	-1,	-1,	-1,	-1,	-1,	-1,	-1,	34,	9,	19,	-1,	22,	-1,	-1,	-1,	-1,	-1,	-1|
-1,	32,	-1,	17,	-1,	-1,	-1,	-1,	-1,	12,	-1,	-1,	-1,	-1,	-1,	-1,	-1,	-1,	-1,	-1,	-1,	-1,	-1,	-1,	-1,	-1,	36,	-1,	33,	-1,	-1,	-1,	4,	-1,	-1,	-1|
-1,	-1,	-1,	-1,	29,	-1,	-1,	-1,	-1,	-1,	31,	-1,	-1,	-1,	-1,	-1,	-1,	-1,	8,	-1,	-1,	-1,	-1,	-1,	-1,	24,	-1,	-1,	-1,	-1,	-1,	11,	14,	-1,	-1,	-1|
-1,	-1,	-1,	-1,	8,	-1,	27,	-1,	-1,	28,	-1,	-1,	-1,	26,	-1,	-1,	-1,	22,	-1,	-1,	6,	-1,	-1,	-1,	4,	-1,	-1,	-1,	-1,	-1,	-1,	-1,	3,	-1,	-1,	-1|
27,	28,	-1,	-1,	-1,	-1,	-1,	-1,	-1,	-1,	-1,	-1,	-1,	19,	-1,	-1,	17,	24,	-1,	-1,	-1,	32,	-1,	-1,	-1,	6,	16,	7,	-1,	-1,	-1,	-1,	-1,	-1,	-1,	-1|
-1,	-1,	-1,	-1,	-1,	-1,	13,	-1,	-1,	34,	-1,	-1,	-1,	20,	-1,	23,	-1,	-1,	-1,	-1,	-1,	-1,	-1,	-1,	-1,	-1,	-1,	-1,	-1,	-1,	19,	-1,	-1,	-1,	-1,	-1|
-1,	-1,	-1,	4,	34,	23,	31,	12,	-1,	35,	14,	2,	19,	-1,	17,	22,	-1,	-1,	-1,	-1,	-1,	-1,	27,	-1,	-1,	-1,	-1,	20,	-1,	7,	-1,	-1,	6,	18,	-1,	-1|
28,	-1,	12,	-1,	5,	-1,	-1,	-1,	-1,	24,	1,	-1,	11,	15,	-1,	-1,	31,	-1,	-1,	-1,	-1,	-1,	-1,	-1,	-1,	36,	-1,	-1,	-1,	-1,	-1,	-1,	-1,	-1,	-1,	-1|
-1,	2,	-1,	-1,	-1,	-1,	-1,	-1,	-1,	-1,	-1,	-1,	-1,	-1,	20,	-1,	-1,	-1,	-1,	-1,	-1,	-1,	-1,	-1,	-1,	-1,	-1,	-1,	-1,	-1,	-1,	-1,	-1,	-1,	-1,	-1|
-1,	-1,	7,	-1,	-1,	-1,	-1,	-1,	6,	-1,	-1,	-1,	-1,	-1,	-1,	24,	-1,	-1,	-1,	12,	-1,	20,	-1,	-1,	-1,	-1,	-1,	-1,	-1,	-1,	-1,	-1,	-1,	25,	-1,	-1|
13,	-1,	-1,	35,	-1,	-1,	-1,	-1,	-1,	-1,	21,	-1,	-1,	-1,	-1,	-1,	-1,	-1,	-1,	-1,	-1,	-1,	7,	-1,	-1,	-1,	26,	16,	-1,	-1,	5,	-1,	23,	12,	-1,	10|
-1,	-1,	-1,	-1,	-1,	-1,	-1,	-1,	-1,	-1,	-1,	20,	34,	-1,	9,	-1,	-1,	-1,	-1,	-1,	17,	-1,	-1,	-1,	-1,	-1,	5,	-1,	-1,	-1,	2,	-1,	-1,	-1,	21,	35|
-1,	-1,	-1,	-1,	-1,	-1,	-1,	-1,	-1,	14,	28,	33,	-1,	6,	-1,	-1,	-1,	17,	-1,	-1,	-1,	-1,	-1,	-1,	-1,	-1,	-1,	-1,	-1,	-1,	-1,	35,	-1,	-1,	-1,	-1|
-1,	-1,	3,	-1,	-1,	-1,	-1,	-1,	-1,	-1,	-1,	-1,	-1,	-1,	-1,	-1,	-1,	-1,	12,	-1,	25,	-1,	-1,	-1,	-1,	-1,	10,	-1,	-1,	-1,	-1,	-1,	8,	-1,	34,	-1|
-1,	-1,	-1,	-1,	-1,	29,	-1,	-1,	30,	17,	-1,	-1,	-1,	13,	-1,	-1,	-1,	-1,	-1,	-1,	-1,	-1,	-1,	-1,	-1,	-1,	4,	31,	-1,	-1,	-1,	36,	-1,	-1,	-1,	-1|
-1,	-1,	-1,	-1,	-1,	-1,	-1,	-1,	-1,	-1,	-1,	-1,	-1,	-1,	15,	-1,	-1,	35,	17,	29,	-1,	18,	9,	-1,	-1,	2,	-1,	-1,	-1,	26,	-1,	4,	-1,	-1,	-1,	-1|
-1,	-1,	26,	-1,	-1,	28,	-1,	13,	-1,	31,	-1,	-1,	-1,	-1,	-1,	-1,	-1,	-1,	-1,	-1,	-1,	-1,	-1,	-1,	8,	-1,	-1,	-1,	-1,	-1,	-1,	-1,	22,	-1,	-1,	-1|
15,	-1,	-1,	-1,	4,	-1,	-1,	-1,	-1,	32,	36,	-1,	-1,	27,	-1,	-1,	-1,	19,	-1,	10,	-1,	-1,	1,	28,	-1,	18,	33,	-1,	-1,	-1,	-1,	-1,	-1,	-1,	-1,	-1|];
